0	0	0
40	0	18
2	60	16
-14	12	22
24	74	24
-6	-14	3
30	-2	19
18	54	6
14	56	6
-38	-18	6
40	54	12
20	-14	18
-38	18	16
2	12	72
-16	54	7
-2	8	16
46	74	23
54	-6	4
46	26	22
10	72	23
16	24	7
44	10	11
54	30	11
48	4	1
-8	4	22
-20	78	16
2	-10	15
44	42	7
-30	-12	5
-26	-6	22
4	18	9
-26	42	10
32	32	11
6	74	9
54	36	3
-34	78	7
42	-8	15
-32	34	10
-32	22	2
